
Gurobi 9.0.3 (win64) logging started Sat Jan  1 21:14:37 2022

Changed value of parameter LogFile to Results/sslp1_50_40_200_var_BendersBnC.log
   Prev:   Default: 
Changed value of parameter Heuristics to 0.0
   Prev: 0.05  Min: 0.0  Max: 1.0  Default: 0.05
Changed value of parameter lazyConstraints to 1
   Prev: 0  Min: 0  Max: 1  Default: 0
Changed value of parameter timeLimit to 7169.23458981514
   Prev: inf  Min: 0.0  Max: inf  Default: inf
Gurobi Optimizer version 9.0.3 build v9.0.3rc0 (win64)
Optimize a model with 3314 rows, 300 columns and 240274 nonzeros
Model fingerprint: 0x5d6df4ac
Variable types: 250 continuous, 50 integer (50 binary)
Coefficient statistics:
  Matrix range     [1e-13, 4e+05]
  Objective range  [5e-03, 4e+01]
  Bounds range     [1e+00, 1e+00]
  RHS range        [2e-15, 9e+03]
Warning: Model contains large matrix coefficient range
         Consider reformulating model or setting NumericFocus parameter
         to avoid numerical issues.
Presolve added 0 rows and 52 columns
Presolve removed 714 rows and 0 columns
Presolve time: 0.17s
Presolved: 2600 rows, 352 columns, 131652 nonzeros
Variable types: 301 continuous, 51 integer (50 binary)

Root relaxation: objective -4.541864e+02, 830 iterations, 0.23 seconds

    Nodes    |    Current Node    |     Objective Bounds      |     Work
 Expl Unexpl |  Obj  Depth IntInf | Incumbent    BestBd   Gap | It/Node Time

     0     0 -454.18635    0   30          - -454.18635      -     -    0s
     0     0 -452.92023    0   25          - -452.92023      -     -    0s
     0     0 -452.73993    0   25          - -452.73993      -     -    0s
     0     0 -452.70424    0   25          - -452.70424      -     -    0s
     0     0 -452.69409    0   25          - -452.69409      -     -    0s
     0     0 -452.68475    0   25          - -452.68475      -     -    0s
     0     0 -452.67965    0   25          - -452.67965      -     -    0s
     0     0 -452.67734    0   24          - -452.67734      -     -    0s
     0     0 -452.67689    0   25          - -452.67689      -     -    0s
     0     0 -452.26316    0   25          - -452.26316      -     -    1s
     0     0 -452.04905    0   24          - -452.04905      -     -    1s
     0     0 -451.95797    0   25          - -451.95797      -     -    1s
     0     0 -451.84464    0   25          - -451.84464      -     -    1s
     0     0 -451.78643    0   24          - -451.78643      -     -    1s
     0     0 -451.74932    0   24          - -451.74932      -     -    1s
     0     0 -451.70711    0   25          - -451.70711      -     -    1s
     0     0 -451.67902    0   24          - -451.67902      -     -    1s
     0     0 -451.66270    0   25          - -451.66270      -     -    1s
     0     0 -451.64902    0   24          - -451.64902      -     -    1s
     0     0 -451.63727    0   24          - -451.63727      -     -    1s
     0     0 -451.62687    0   24          - -451.62687      -     -    1s
     0     0 -451.62098    0   25          - -451.62098      -     -    1s
     0     0 -451.61069    0   25          - -451.61069      -     -    1s
     0     0 -451.60599    0   24          - -451.60599      -     -    1s
     0     0 -451.60159    0   25          - -451.60159      -     -    1s
     0     0 -451.59922    0   25          - -451.59922      -     -    1s
     0     0 -451.59633    0   24          - -451.59633      -     -    1s
     0     0 -451.59582    0   24          - -451.59582      -     -    1s
     0     0 -451.59521    0   24          - -451.59521      -     -    1s
     0     0 -451.59351    0   24          - -451.59351      -     -    1s
     0     0 -451.59298    0   23          - -451.59298      -     -    1s
     0     0 -451.59107    0   24          - -451.59107      -     -    2s
     0     0 -451.59018    0   25          - -451.59018      -     -    2s
     0     0 -451.58982    0   25          - -451.58982      -     -    2s
     0     0 -451.58979    0   25          - -451.58979      -     -    2s
     0     0 -451.46972    0   24          - -451.46972      -     -    2s
     0     0 -451.43009    0   26          - -451.43009      -     -    2s
     0     0 -451.40694    0   25          - -451.40694      -     -    2s
     0     0 -451.39817    0   25          - -451.39817      -     -    2s
     0     0 -451.37486    0   25          - -451.37486      -     -    2s
     0     0 -451.37109    0   25          - -451.37109      -     -    2s
     0     0 -451.37013    0   27          - -451.37013      -     -    2s
     0     0 -451.36799    0   25          - -451.36799      -     -    2s
     0     0 -451.36617    0   25          - -451.36617      -     -    2s
     0     0 -451.36492    0   24          - -451.36492      -     -    2s
     0     0 -451.36464    0   26          - -451.36464      -     -    2s
     0     0 -451.31508    0   25          - -451.31508      -     -    2s
     0     0 -451.29814    0   25          - -451.29814      -     -    3s
     0     0 -451.29257    0   24          - -451.29257      -     -    3s
     0     0 -451.28885    0   26          - -451.28885      -     -    3s
     0     0 -451.27961    0   24          - -451.27961      -     -    3s
     0     0 -451.27701    0   26          - -451.27701      -     -    3s
     0     0 -451.27571    0   25          - -451.27571      -     -    3s
     0     0 -451.27510    0   25          - -451.27510      -     -    3s
     0     0 -451.24712    0   28          - -451.24712      -     -    3s
     0     0 -451.23497    0   25          - -451.23497      -     -    3s
     0     0 -451.22769    0   26          - -451.22769      -     -    3s
     0     0 -451.22437    0   26          - -451.22437      -     -    3s
     0     0 -451.22209    0   26          - -451.22209      -     -    3s
     0     0 -451.22013    0   24          - -451.22013      -     -    3s
     0     0 -451.21971    0   26          - -451.21971      -     -    3s
     0     0 -451.20065    0   26          - -451.20065      -     -    3s
     0     0 -451.18343    0   25          - -451.18343      -     -    3s
     0     0 -451.17404    0   28          - -451.17404      -     -    3s
     0     0 -451.16483    0   30          - -451.16483      -     -    3s
     0     0 -451.15929    0   29          - -451.15929      -     -    3s
     0     0 -451.15447    0   29          - -451.15447      -     -    3s
     0     0 -451.15326    0   29          - -451.15326      -     -    4s
     0     0 -451.14952    0   29          - -451.14952      -     -    4s
     0     0 -451.14781    0   30          - -451.14781      -     -    4s
     0     0 -451.14441    0   30          - -451.14441      -     -    4s
     0     0 -451.14351    0   31          - -451.14351      -     -    4s
     0     0 -451.14311    0   30          - -451.14311      -     -    4s
     0     0 -451.12956    0   27          - -451.12956      -     -    4s
     0     0 -451.12164    0   27          - -451.12164      -     -    4s
     0     0 -451.11722    0   25          - -451.11722      -     -    4s
     0     0 -451.11190    0   27          - -451.11190      -     -    4s
     0     0 -451.10894    0   28          - -451.10894      -     -    4s
     0     0 -451.10710    0   28          - -451.10710      -     -    4s
     0     0 -451.10455    0   27          - -451.10455      -     -    4s
     0     0 -451.10137    0   28          - -451.10137      -     -    4s
     0     0 -451.09926    0   28          - -451.09926      -     -    4s
     0     0 -451.09775    0   27          - -451.09775      -     -    4s
     0     0 -451.09607    0   27          - -451.09607      -     -    4s
     0     0 -451.09565    0   28          - -451.09565      -     -    4s
     0     0 -451.08063    0   27          - -451.08063      -     -    5s
     0     0 -451.05289    0   26          - -451.05289      -     -    5s
     0     0 -451.04351    0   25          - -451.04351      -     -    5s
     0     0 -451.04246    0   26          - -451.04246      -     -    5s
     0     0 -451.04045    0   26          - -451.04045      -     -    5s
     0     0 -451.03737    0   26          - -451.03737      -     -    5s
     0     0 -451.03480    0   26          - -451.03480      -     -    5s
     0     0 -451.03356    0   26          - -451.03356      -     -    5s
     0     0 -451.03258    0   26          - -451.03258      -     -    5s
     0     0 -451.03094    0   26          - -451.03094      -     -    5s
     0     0 -451.03025    0   26          - -451.03025      -     -    5s
     0     0 -451.02552    0   26          - -451.02552      -     -    5s
     0     0 -451.01771    0   26          - -451.01771      -     -    5s
     0     0 -451.01605    0   26          - -451.01605      -     -    5s
     0     0 -451.01410    0   26          - -451.01410      -     -    5s
     0     0 -451.01246    0   26          - -451.01246      -     -    5s
     0     0 -451.01193    0   26          - -451.01193      -     -    5s
     0     0 -450.99849    0   25          - -450.99849      -     -    5s
     0     0 -450.98484    0   26          - -450.98484      -     -    5s
     0     0 -450.97821    0   26          - -450.97821      -     -    6s
     0     0 -450.97657    0   26          - -450.97657      -     -    6s
     0     0 -450.97414    0   27          - -450.97414      -     -    6s
     0     0 -450.97341    0   26          - -450.97341      -     -    6s
     0     0 -450.96324    0   27          - -450.96324      -     -    6s
     0     0 -450.95592    0   26          - -450.95592      -     -    6s
     0     0 -450.94778    0   27          - -450.94778      -     -    6s
     0     0 -450.94240    0   26          - -450.94240      -     -    6s
     0     0 -450.94005    0   27          - -450.94005      -     -    6s
     0     0 -450.93560    0   26          - -450.93560      -     -    6s
     0     0 -450.93083    0   28          - -450.93083      -     -    6s
     0     0 -450.92875    0   28          - -450.92875      -     -    6s
     0     0 -450.92816    0   28          - -450.92816      -     -    6s
     0     0 -450.90631    0   26          - -450.90631      -     -    6s
     0     0 -450.90235    0   26          - -450.90235      -     -    6s
     0     0 -450.89875    0   27          - -450.89875      -     -    6s
     0     0 -450.89620    0   26          - -450.89620      -     -    6s
     0     0 -450.89198    0   26          - -450.89198      -     -    6s
     0     0 -450.89005    0   27          - -450.89005      -     -    6s
     0     0 -450.88879    0   26          - -450.88879      -     -    6s
     0     0 -450.88795    0   27          - -450.88795      -     -    7s
     0     0 -450.88437    0   26          - -450.88437      -     -    7s
     0     0 -450.87918    0   28          - -450.87918      -     -    7s
     0     0 -450.87358    0   27          - -450.87358      -     -    7s
     0     0 -450.87040    0   28          - -450.87040      -     -    7s
     0     0 -450.86891    0   27          - -450.86891      -     -    7s
     0     0 -450.86779    0   27          - -450.86779      -     -    7s
     0     0 -450.86687    0   27          - -450.86687      -     -    7s
     0     0 -450.86350    0   26          - -450.86350      -     -    7s
     0     0 -450.85874    0   24          - -450.85874      -     -    7s
     0     0 -450.85635    0   26          - -450.85635      -     -    7s
     0     0 -450.85368    0   28          - -450.85368      -     -    7s
     0     0 -450.85228    0   25          - -450.85228      -     -    7s
     0     0 -450.85148    0   28          - -450.85148      -     -    7s
     0     0 -450.84317    0   27          - -450.84317      -     -    8s
     0     0 -450.83863    0   25          - -450.83863      -     -    8s
     0     0 -450.83677    0   25          - -450.83677      -     -    8s
     0     0 -450.83524    0   27          - -450.83524      -     -    8s
     0     0 -450.83406    0   28          - -450.83406      -     -    8s
     0     0 -450.83323    0   27          - -450.83323      -     -    8s
     0     0 -450.82707    0   27          - -450.82707      -     -    8s
     0     0 -450.82306    0   27          - -450.82306      -     -    8s
     0     0 -450.82121    0   27          - -450.82121      -     -    8s
     0     0 -450.81859    0   27          - -450.81859      -     -    8s
     0     0 -450.81800    0   27          - -450.81800      -     -    8s
     0     0 -450.80330    0   28          - -450.80330      -     -    8s
     0     0 -450.79145    0   26          - -450.79145      -     -    8s
     0     0 -450.78393    0   26          - -450.78393      -     -    8s
     0     0 -450.77582    0   28          - -450.77582      -     -    8s
     0     0 -450.77366    0   27          - -450.77366      -     -    8s
     0     0 -450.77086    0   27          - -450.77086      -     -    8s
     0     0 -450.76799    0   26          - -450.76799      -     -    8s
     0     0 -450.76542    0   26          - -450.76542      -     -    8s
     0     0 -450.76303    0   27          - -450.76303      -     -    8s
     0     0 -450.76145    0   27          - -450.76145      -     -    9s
     0     0 -450.76016    0   27          - -450.76016      -     -    9s
     0     0 -450.75937    0   27          - -450.75937      -     -    9s
     0     0 -450.75437    0   26          - -450.75437      -     -    9s
     0     0 -450.75007    0   27          - -450.75007      -     -    9s
     0     0 -450.74680    0   26          - -450.74680      -     -    9s
     0     0 -450.74023    0   26          - -450.74023      -     -    9s
     0     0 -450.73345    0   28          - -450.73345      -     -    9s
     0     0 -450.73256    0   27          - -450.73256      -     -    9s
     0     0 -450.72981    0   27          - -450.72981      -     -    9s
     0     0 -450.72824    0   27          - -450.72824      -     -    9s
     0     0 -450.72116    0   27          - -450.72116      -     -    9s
     0     0 -450.71934    0   27          - -450.71934      -     -    9s
     0     0 -450.71883    0   27          - -450.71883      -     -    9s
     0     0 -450.71095    0   26          - -450.71095      -     -    9s
     0     0 -450.70541    0   26          - -450.70541      -     -   10s
     0     0 -450.70047    0   27          - -450.70047      -     -   10s
     0     0 -450.69897    0   27          - -450.69897      -     -   10s
     0     0 -450.69288    0   29          - -450.69288      -     -   10s
     0     0 -450.68617    0   29          - -450.68617      -     -   10s
     0     0 -450.68227    0   28          - -450.68227      -     -   10s
     0     0 -450.67943    0   28          - -450.67943      -     -   10s
     0     0 -450.67782    0   28          - -450.67782      -     -   10s
     0     0 -450.67148    0   23          - -450.67148      -     -   10s
     0     0 -450.66356    0   24          - -450.66356      -     -   10s
     0     0 -450.65844    0   27          - -450.65844      -     -   10s
     0     0 -450.65478    0   26          - -450.65478      -     -   10s
     0     0 -450.65396    0   26          - -450.65396      -     -   10s
     0     0 -450.65066    0   27          - -450.65066      -     -   10s
     0     0 -450.64791    0   27          - -450.64791      -     -   10s
     0     0 -450.64384    0   26          - -450.64384      -     -   10s
     0     0 -450.64157    0   26          - -450.64157      -     -   10s
     0     0 -450.64078    0   26          - -450.64078      -     -   10s
     0     0 -450.62823    0   27          - -450.62823      -     -   10s
     0     0 -450.62327    0   25          - -450.62327      -     -   10s
     0     0 -450.61672    0   25          - -450.61672      -     -   11s
     0     0 -450.61461    0   27          - -450.61461      -     -   11s
     0     0 -450.61258    0   26          - -450.61258      -     -   11s
     0     0 -450.61014    0   27          - -450.61014      -     -   11s
     0     0 -450.60862    0   27          - -450.60862      -     -   11s
     0     0 -450.60592    0   27          - -450.60592      -     -   11s
     0     0 -450.60523    0   27          - -450.60523      -     -   11s
     0     0 -450.58885    0   25          - -450.58885      -     -   11s
     0     0 -450.58189    0   25          - -450.58189      -     -   11s
     0     0 -450.57420    0   25          - -450.57420      -     -   11s
     0     0 -450.57360    0   26          - -450.57360      -     -   11s
     0     0 -450.56793    0   24          - -450.56793      -     -   11s
     0     0 -450.56607    0   26          - -450.56607      -     -   11s
     0     0 -450.56502    0   26          - -450.56502      -     -   11s
     0     0 -450.56440    0   27          - -450.56440      -     -   11s
     0     0 -450.54518    0   25          - -450.54518      -     -   12s
     0     0 -450.54245    0   24          - -450.54245      -     -   12s
     0     0 -450.54113    0   27          - -450.54113      -     -   12s
     0     0 -450.54006    0   27          - -450.54006      -     -   12s
     0     0 -450.53888    0   27          - -450.53888      -     -   12s
     0     0 -450.53168    0   27          - -450.53168      -     -   12s
     0     0 -450.53088    0   26          - -450.53088      -     -   12s
     0     0 -450.52892    0   28          - -450.52892      -     -   12s
     0     0 -450.52520    0   29          - -450.52520      -     -   12s
     0     0 -450.52377    0   27          - -450.52377      -     -   12s
     0     0 -450.52340    0   26          - -450.52340      -     -   12s
     0     0 -450.50966    0   25          - -450.50966      -     -   12s
     0     0 -450.50147    0   27          - -450.50147      -     -   12s
     0     0 -450.49945    0   27          - -450.49945      -     -   12s
     0     0 -450.49909    0   27          - -450.49909      -     -   12s
     0     0 -450.49615    0   25          - -450.49615      -     -   13s
     0     0 -450.49468    0   27          - -450.49468      -     -   13s
     0     0 -450.49301    0   25          - -450.49301      -     -   13s
     0     0 -450.49231    0   27          - -450.49231      -     -   13s
     0     0 -450.49167    0   26          - -450.49167      -     -   13s
     0     0 -450.49053    0   26          - -450.49053      -     -   13s
     0     0 -450.48973    0   26          - -450.48973      -     -   13s
     0     0 -450.48850    0   26          - -450.48850      -     -   13s
     0     0 -450.48850    0   26          - -450.48850      -     -   13s
     0     2 -450.48850    0   26          - -450.48850      -     -   13s
    95    93 -435.64052   41    4          - -450.38394      -  78.0   19s
*   97    93              50    -271.4411814 -450.38394  65.9%  78.9   20s
*   99    93              50    -289.0599922 -450.38394  55.8%  79.4   21s
   110   100 -445.93226    4   12 -289.05999 -450.38394  55.8%  81.8   25s
   196   178 -442.81397   34    2 -289.05999 -450.30135  55.8%  69.4   33s
*  201   178              50    -312.6049914 -450.30135  44.0%  70.3   35s
   212   183 -424.25747   48    2 -312.60499 -450.30135  44.0%  69.5   40s
   219   192 -440.81962   42    2 -312.60499 -450.30135  44.0%  69.9   45s
   245   199     cutoff   50      -312.60499 -450.15435  44.0%  70.5   54s
   254   201     cutoff   50      -312.60499 -450.02072  44.0%  72.7   55s
   270   212 -443.77207   20   10 -312.60499 -450.02072  44.0%  73.4   62s
   281   222 -378.17950   16    2 -312.60499 -450.02072  44.0%  72.1   66s
   289   226 -356.46885   19    - -312.60499 -450.02072  44.0%  71.8   71s
   307   239 -441.89823   31    4 -312.60499 -450.02072  44.0%  69.3   80s
   358   254 -445.22759   12    9 -312.60499 -449.86590  43.9%  64.6   88s
   367   261 -444.53936   14   11 -312.60499 -449.86590  43.9%  65.7   92s
   412   330 -439.32974   36    3 -312.60499 -449.86590  43.9%  66.2   95s
   449   331     cutoff   50      -312.60499 -449.75825  43.9%  62.6  101s
   464   333     cutoff   50      -312.60499 -449.53329  43.8%  64.1  109s
   481   335     cutoff   50      -312.60499 -449.34346  43.7%  65.5  117s
   491   338     cutoff   50      -312.60499 -449.16131  43.7%  66.5  120s
   561   393     cutoff   50      -312.60499 -448.76046  43.6%  65.1  129s
   577   393     cutoff   50      -312.60499 -448.43414  43.5%  66.9  138s
   583   394 -417.23144   49    2 -312.60499 -448.30136  43.4%  67.0  140s
   593   394     cutoff   50      -312.60499 -448.18982  43.4%  67.3  146s
   607   405 -444.14745   25    9 -312.60499 -448.11078  43.3%  67.8  150s
   636   429 -447.20147   12    9 -312.60499 -448.11078  43.3%  66.8  155s
   651   440     cutoff   50      -312.60499 -448.04316  43.3%  67.0  163s
   662   444 -438.99499   17    2 -312.60499 -448.03438  43.3%  67.2  166s
   682   462 -318.55999   50    - -312.60499 -447.98802  43.3%  66.4  174s
   709   463     cutoff   50      -312.60499 -447.93173  43.3%  65.9  178s
   712   463 -325.50499   50    - -312.60499 -447.91948  43.3%  66.0  180s
   717   469 -443.68801    6    2 -312.60499 -447.91948  43.3%  66.2  187s
   737   476     cutoff   50      -312.60499 -447.91948  43.3%  65.1  196s
   748   509 -443.58331   19    2 -312.60499 -447.91948  43.3%  65.3  203s
*  785   506              50    -334.9699915 -447.79816  33.7%  63.7  207s
*  803   538              50    -335.4299907 -447.64836  33.5%  63.7  221s
   841   546     cutoff   50      -335.42999 -447.61316  33.4%  62.2  227s
   864   549     cutoff   50      -335.42999 -447.53779  33.4%  61.8  236s
   876   553 -441.38819   17    6 -335.42999 -447.51938  33.4%  62.4  241s
   904   589 -435.66421   31    3 -335.42999 -447.51938  33.4%  62.0  246s
   943   611     cutoff   50      -335.42999 -447.44011  33.4%  61.0  251s
   949   614 -397.89237   37    2 -335.42999 -447.43466  33.4%  61.0  255s
   965   620     cutoff   50      -335.42999 -447.32779  33.4%  60.5  265s
   985   672 -441.65328   12    3 -335.42999 -447.32779  33.4%  60.6  275s
  1041   698 -413.71222   44    2 -335.42999 -447.26730  33.3%  58.3  284s
  1079   705 -443.70282   22   26 -335.42999 -447.26730  33.3%  57.3  310s
  1081   706 -431.58228   35   30 -335.42999 -447.26730  33.3%  57.2  357s
  1082   707 -443.39159   40   25 -335.42999 -447.26730  33.3%  57.2  368s
  1083   708 -443.39159   40   25 -335.42999 -447.26730  33.3%  57.1  373s
  1084   708 -425.81504   43   26 -335.42999 -447.26730  33.3%  57.0  375s
  1087   710 -443.89627   18   27 -335.42999 -447.26730  33.3%  56.9  380s
  1090   712 -439.26062   27   26 -335.42999 -447.26730  33.3%  56.7  385s
  1093   714 -441.05181   25   28 -335.42999 -447.26730  33.3%  56.6  390s
  1095   716 -438.91734   35   27 -335.42999 -447.26730  33.3%  56.5  397s
  1097   717 -444.83969   13   24 -335.42999 -447.26730  33.3%  56.4  400s
  1099   718 -435.26233   34   24 -335.42999 -447.26730  33.3%  56.3  409s
  1100   719 -402.07264   31   27 -335.42999 -447.26730  33.3%  56.2  419s
  1101   720 -442.08763   13   25 -335.42999 -447.26730  33.3%  56.2  420s
  1104   722 -436.10992   34   26 -335.42999 -447.26730  33.3%  56.0  428s
  1105   722 -424.14987   25   26 -335.42999 -447.26730  33.3%  56.0  435s
  1106   723 -436.93318   40   24 -335.42999 -447.26730  33.3%  55.9  440s
  1107   724 -437.71704   45   25 -335.42999 -447.26730  33.3%  55.9  447s
  1109   725 -445.90735   27   25 -335.42999 -447.26730  33.3%  55.8  454s
  1110   726 -440.83817    8   25 -335.42999 -447.26730  33.3%  55.7  460s
  1111   726 -445.68053   22   24 -335.42999 -447.26730  33.3%  55.7  466s
  1112   727 -442.28683    8   24 -335.42999 -447.26730  33.3%  55.6  472s
  1113   728 -438.39092   37   24 -335.42999 -447.26730  33.3%  55.6  478s
  1114   728 -436.85383   37   24 -335.42999 -447.26730  33.3%  55.5  484s
  1115   729 -444.98306   23   25 -335.42999 -447.26730  33.3%  55.5  490s
  1116   730 -435.95348   44   26 -335.42999 -447.26730  33.3%  55.4  497s
  1117   730 -441.41517   17   24 -335.42999 -447.26730  33.3%  55.4  503s
  1118   731 -438.23874   38   25 -335.42999 -447.26730  33.3%  55.3  520s
  1119   732 -443.93888   27   25 -335.42999 -447.26730  33.3%  55.3  526s
  1121   736 -447.26730   10   20 -335.42999 -447.26730  33.3%  60.0  549s
  1123   737 -447.26730   11   20 -335.42999 -447.26730  33.3%  60.2  562s
  1125   737     cutoff   11      -335.42999 -447.26730  33.3%  60.6  568s
  1127   738 -447.26730   12   20 -335.42999 -447.26730  33.3%  60.9  581s
  1129   737     cutoff   12      -335.42999 -447.26730  33.3%  61.1  585s
  1131   739 -447.26730   13   20 -335.42999 -447.26730  33.3%  61.5  591s
  1133   738 -338.78938   13    - -335.42999 -447.26730  33.3%  61.8  595s
  1138   738 -400.05604   14    - -335.42999 -447.26730  33.3%  62.4  601s
  1144   739 -410.01202   15    - -335.42999 -447.26730  33.3%  63.2  606s
  1149   742     cutoff   16      -335.42999 -447.26730  33.3%  63.7  610s
  1157   744     cutoff   18      -335.42999 -447.26730  33.3%  64.6  617s
  1163   745     cutoff   19      -335.42999 -447.26730  33.3%  65.0  620s
  1174   749 -351.92465   21    - -335.42999 -447.26730  33.3%  66.0  625s
  1186   753     cutoff   23      -335.42999 -447.26730  33.3%  66.9  631s
  1195   755     cutoff   25      -335.42999 -447.20172  33.3%  67.6  636s
  1206   758     cutoff   27      -335.42999 -446.98959  33.3%  68.3  644s
  1215   760 -446.92774   29   13 -335.42999 -446.92774  33.2%  68.9  647s
  1224   762 -446.09494   31   11 -335.42999 -446.28430  33.0%  69.2  652s
  1232   759     cutoff   31      -335.42999 -446.28430  33.0%  69.4  658s
  1242   760     cutoff   33      -335.42999 -446.28430  33.0%  70.0  666s
  1259   763 -445.81505   35    8 -335.42999 -446.28430  33.0%  70.3  676s
  1275   761     cutoff   38      -335.42999 -446.28430  33.0%  70.8  686s
  1294   764     cutoff   41      -335.42999 -446.28430  33.0%  71.1  699s
  1300   764 -409.72748   59    - -335.42999 -446.28430  33.0%  71.5  703s
  1311   769 -434.54264   44    - -335.42999 -446.28430  33.0%  71.5  711s
  1342   771     cutoff   53      -335.42999 -446.28430  33.0%  73.6  719s
  1367   779 infeasible   56      -335.42999 -446.26282  33.0%  73.8  729s
  1397   778 -445.36891   21   14 -335.42999 -446.24636  33.0%  73.4  739s
  1424   788 -444.40703   25   14 -335.42999 -446.24636  33.0%  73.3  751s
  1453   819 -440.31967   33    6 -335.42999 -446.24636  33.0%  73.7  758s
  1500   808     cutoff   35      -335.42999 -446.24636  33.0%  73.2  779s
* 1517   769              34    -338.1499908 -446.24636  32.0%  73.4  786s
* 1518   728              33    -357.1899905 -446.24636  24.9%  73.5  787s
  1534   740 -436.40464   39    3 -357.18999 -445.72536  24.8%  73.5  793s
  1569   750     cutoff   60      -357.18999 -445.16783  24.6%  73.2  805s
  1594   750     cutoff   61      -357.18999 -445.11825  24.6%  73.0  814s
  1619   768 -427.05650   21    7 -357.18999 -444.83502  24.5%  73.2  828s
  1642   783 -422.80784   34    2 -357.18999 -444.82262  24.5%  73.2  837s
  1686   778     cutoff   36      -357.18999 -444.80214  24.5%  72.6  861s
  1726   801     cutoff   62      -357.18999 -444.79607  24.5%  72.3  884s
  1770   819 -442.38985   23   10 -357.18999 -444.64555  24.5%  71.8  899s
  1790   815     cutoff   60      -357.18999 -444.64555  24.5%  71.6  903s
  1828   840 -414.66953   40    3 -357.18999 -444.56344  24.5%  71.0  921s
  1864   836     cutoff   61      -357.18999 -444.51267  24.4%  70.5  932s
  1876   842     cutoff   60      -357.18999 -444.40192  24.4%  70.7  939s
  1904   847     cutoff   61      -357.18999 -444.38403  24.4%  71.0  951s
  1926   861 -436.11822   32    2 -357.18999 -444.38403  24.4%  71.1  965s
  1949   861 -424.41699   45    2 -357.18999 -444.38403  24.4%  71.1  974s
  1972   866     cutoff   33      -357.18999 -444.38403  24.4%  71.4  991s
  2002   865 -386.66423   55    4 -357.18999 -444.38403  24.4%  71.3 1003s
  2020   870 -412.81416   47    2 -357.18999 -444.20560  24.4%  71.3 1018s
  2038   869 -380.34761   61    2 -357.18999 -444.20462  24.4%  71.3 1025s
  2051   881 -407.13790   58    2 -357.18999 -444.19747  24.4%  71.5 1038s
  2088   886 -398.19020   60    2 -357.18999 -443.95777  24.3%  71.5 1056s
  2110   908     cutoff   61      -357.18999 -443.85250  24.3%  71.8 1073s
  2132   907 -426.67650   28    7 -357.18999 -443.70890  24.2%  71.8 1082s
  2174   920     cutoff   61      -357.18999 -443.66613  24.2%  71.2 1105s
  2198   917     cutoff   56      -357.18999 -443.59585  24.2%  71.1 1112s
  2218   971     cutoff   20      -357.18999 -443.57096  24.2%  71.0 1131s
  2289   963 -406.21420   60    2 -357.18999 -443.51667  24.2%  69.9 1148s
  2302   961     cutoff   34      -357.18999 -443.45524  24.2%  70.2 1152s
  2323   970     cutoff   61      -357.18999 -443.45113  24.1%  70.2 1170s
  2343   971 -403.09688   52    2 -357.18999 -443.42560  24.1%  70.2 1180s
  2364   981 -370.36433   61    2 -357.18999 -443.40731  24.1%  70.1 1197s
  2391   999 -425.10735   27    6 -357.18999 -443.36309  24.1%  70.3 1217s
  2434  1024 -397.81343   41    2 -357.18999 -443.31756  24.1%  70.1 1243s
  2490  1026     cutoff   50      -357.18999 -443.26024  24.1%  69.8 1271s
  2543  1045 -361.14861   52    3 -357.18999 -443.16933  24.1%  69.6 1305s
  2590  1046     cutoff   58      -357.18999 -443.16465  24.1%  69.6 1330s
  2616  1055 -419.95930   30    6 -357.18999 -443.15680  24.1%  69.9 1349s
  2688  1084 -371.96283   53    2 -357.18999 -443.07914  24.0%  69.3 1400s
  2740  1084     cutoff   62      -357.18999 -442.94947  24.0%  69.0 1433s
  2754  1081     cutoff   22      -357.18999 -442.90697  24.0%  69.2 1435s
  2783  1121 -425.50928   31    4 -357.18999 -442.89971  24.0%  69.3 1470s
  2860  1133 -398.67791   56    2 -357.18999 -442.74068  24.0%  68.9 1508s
  2906  1137 -390.82977   61    2 -357.18999 -442.71492  23.9%  68.8 1540s
  2978  1150     cutoff   62      -357.18999 -442.69559  23.9%  68.8 1590s
  3032  1168 -420.78911   36    4 -357.18999 -442.65690  23.9%  68.8 1628s
  3079  1194 -404.13954   60    2 -357.18999 -442.61350  23.9%  68.8 1656s
  3136  1219     cutoff   61      -357.18999 -442.60027  23.9%  68.6 1683s
  3181  1251 -365.20140   37    - -357.18999 -442.55203  23.9%  68.7 1715s
  3239  1262 -395.67868   36    2 -357.18999 -442.53287  23.9%  68.1 1727s
  3282  1332 -371.02625   60    2 -357.18999 -442.53209  23.9%  67.8 1772s
  3328  1337 -395.60181   51    3 -357.18999 -442.52713  23.9%  67.5 1778s
  3378  1381     cutoff   62      -357.18999 -442.47850  23.9%  67.1 1817s
  3452  1434     cutoff   26      -357.18999 -442.38328  23.9%  67.0 1857s
  3486  1438     cutoff   62      -357.18999 -442.37373  23.8%  66.8 1862s
  3513  1492 -384.36506   61    2 -357.18999 -442.33732  23.8%  66.8 1888s
  3613  1551     cutoff   62      -357.18999 -442.30813  23.8%  66.4 1941s
  3651  1556 -405.24876   59    2 -357.18999 -442.27102  23.8%  66.3 1948s
  3691  1584 -440.67287   16    - -357.18999 -442.27102  23.8%  66.2 1982s
  3727  1592     cutoff   61      -357.18999 -442.27102  23.8%  66.2 1992s
  3751  1616     cutoff   16      -357.18999 -442.25404  23.8%  66.3 2029s
  3802  1626 -419.55308   37    2 -357.18999 -442.25404  23.8%  66.2 2043s
  3849  1685 -360.78567   53    2 -357.18999 -442.24589  23.8%  66.1 2095s
  3928  1721     cutoff   59      -357.18999 -442.22880  23.8%  66.0 2151s
  3960  1729 -403.87000   60    2 -357.18999 -442.21578  23.8%  66.2 2164s
  4007  1808 -422.19388   29    3 -357.18999 -442.20119  23.8%  66.0 2212s
  4064  1819     cutoff   32      -357.18999 -442.17327  23.8%  65.7 2226s
  4122  1848 -408.97608   57    3 -357.18999 -442.15525  23.8%  65.4 2271s
  4188  1876 -417.98427   36    2 -357.18999 -442.11356  23.8%  65.7 2330s
  4235  1893 -405.86897   60    2 -357.18999 -442.10924  23.8%  65.5 2354s
  4267  1935 -368.52074   55    2 -357.18999 -442.06236  23.8%  65.6 2399s
  4356  1993     cutoff   60      -357.18999 -442.00544  23.7%  65.4 2462s
  4431  2014     cutoff   57      -357.18999 -441.98340  23.7%  65.3 2519s
  4505  2075     cutoff   61      -357.18999 -441.94819  23.7%  65.4 2594s
  4537  2077 -395.12082   39    - -357.18999 -441.94716  23.7%  65.5 2598s
  4579  2148 -397.09668   45    4 -357.18999 -441.93257  23.7%  65.5 2652s
  4638  2160     cutoff   41      -357.18999 -441.89199  23.7%  65.3 2670s
  4709  2232     cutoff   61      -357.18999 -441.88939  23.7%  64.9 2737s
  4766  2242 -359.84037   58    4 -357.18999 -441.87385  23.7%  64.8 2751s
  4809  2259     cutoff   62      -357.18999 -441.87246  23.7%  64.8 2812s
  4900  2359 -396.17500   41    3 -357.18999 -441.81963  23.7%  64.9 2904s
  5031  2429 -361.10490   56    2 -357.18999 -441.78689  23.7%  64.4 2989s
  5133  2499 -359.79178   61    2 -357.18999 -441.75382  23.7%  64.3 3069s
  5237  2555     cutoff   62      -357.18999 -441.66702  23.7%  64.1 3148s
  5329  2597     cutoff   42      -357.18999 -441.63287  23.6%  64.2 3231s
  5402  2663     cutoff   51      -357.18999 -441.62170  23.6%  64.4 3301s
  5460  2677 -357.54902   60    2 -357.18999 -441.57855  23.6%  64.3 3321s
  5494  2704     cutoff   62      -357.18999 -441.55946  23.6%  64.3 3376s
  5582  2802 -380.56653   55    2 -357.18999 -441.51188  23.6%  64.5 3469s
  5737  2863 -387.20019   61    2 -357.18999 -441.43025  23.6%  64.0 3574s
  5805  2884 -383.53902   61    2 -357.18999 -441.36363  23.6%  63.9 3604s
  5864  2914     cutoff   56      -357.18999 -441.35665  23.6%  63.8 3681s
  5984  3010     cutoff   61      -357.18999 -441.30393  23.5%  63.7 3811s
  6154  3109 -377.76042   45    2 -357.18999 -441.25458  23.5%  63.4 3942s
  6231  3126 -395.81803   60    2 -357.18999 -441.22687  23.5%  63.2 3961s
  6305  3165     cutoff   60      -357.18999 -441.21511  23.5%  63.0 4054s
  6424  3236 -405.31782   56    2 -357.18999 -441.13415  23.5%  63.1 4182s
  6532  3294     cutoff   61      -357.18999 -441.06315  23.5%  63.0 4295s
  6587  3307 -364.29812   48    2 -357.18999 -441.02020  23.5%  63.0 4314s
  6648  3357     cutoff   59      -357.18999 -441.01988  23.5%  63.0 4408s
  6722  3372 -405.73893   57    2 -357.18999 -440.95387  23.5%  63.0 4428s
  6760  3435     cutoff   61      -357.18999 -440.94962  23.4%  63.0 4523s
  6814  3443 -400.10283   60    2 -357.18999 -440.91564  23.4%  63.0 4534s
  6880  3495     cutoff   24      -357.18999 -440.88362  23.4%  63.0 4625s
  6951  3514     cutoff   61      -357.18999 -440.86676  23.4%  62.8 4652s
  6991  3556 -373.87266   62    2 -357.18999 -440.84332  23.4%  62.9 4734s
  7057  3573     cutoff   61      -357.18999 -440.82517  23.4%  62.9 4759s
  7086  3611 -369.44275   57    2 -357.18999 -440.79888  23.4%  63.0 4835s
  7198  3691     cutoff   26      -357.18999 -440.71350  23.4%  63.0 4952s
  7346  3754     cutoff   61      -357.18999 -440.66131  23.4%  62.7 5087s
  7387  3762 -389.59836   57    2 -357.18999 -440.63409  23.4%  62.8 5099s
  7443  3826     cutoff   30      -357.18999 -440.63058  23.4%  62.8 5194s
  7511  3836 -380.69661   61    2 -357.18999 -440.61447  23.4%  62.6 5209s
  7558  3893 -389.20763   58    2 -357.18999 -440.60206  23.4%  62.6 5305s
  7606  3903 -357.33121   61    2 -357.18999 -440.56995  23.3%  62.5 5321s
  7643  3955     cutoff   61      -357.18999 -440.56896  23.3%  62.5 5401s
  7759  4023 -386.57735   59    2 -357.18999 -440.46928  23.3%  62.5 5535s
  7889  4089     cutoff   61      -357.18999 -440.41336  23.3%  62.4 5667s
  7985  4136 -413.04272   46    2 -357.18999 -440.31679  23.3%  62.4 5776s
  8112  4239     cutoff   58      -357.18999 -440.29647  23.3%  62.3 5911s
  8254  4322     cutoff   61      -357.18999 -440.25184  23.3%  62.0 6022s
  8373  4389 -400.83702   54    2 -357.18999 -440.17508  23.2%  62.0 6127s
  8449  4402 -382.50609   60    2 -357.18999 -440.15402  23.2%  61.8 6147s
  8509  4453 -408.02545   60    2 -357.18999 -440.15046  23.2%  61.9 6253s
  8645  4534     cutoff   61      -357.18999 -440.00225  23.2%  61.9 6383s
  8768  4563 -376.28668   61    2 -357.18999 -439.96870  23.2%  61.8 6509s
  8823  4585 -374.38213   58    3 -357.18999 -439.85820  23.1%  61.8 6541s
  8869  4635 -405.92679   54    2 -357.18999 -439.85162  23.1%  61.9 6659s
  8952  4684     cutoff   61      -357.18999 -439.82360  23.1%  61.9 6766s
  8986  4692 -393.63651   43    3 -357.18999 -439.79045  23.1%  62.0 6778s
  9055  4738 -370.37593   60    2 -357.18999 -439.77671  23.1%  62.0 6883s
  9128  4746     cutoff   61      -357.18999 -439.76582  23.1%  61.9 6895s
  9173  4805 -386.38285   59    2 -357.18999 -439.66400  23.1%  62.0 6995s
  9305  4862 -419.91499   40    5 -357.18999 -439.51156  23.0%  61.9 7122s

Cutting planes:
  MIR: 468
  Flow cover: 131
  Lazy constraints: 349398

Explored 9415 nodes (594430 simplex iterations) in 7170.59 seconds
Thread count was 4 (of 4 available processors)

Solution count 7: -357.19 -338.15 -335.43 ... -271.441

Time limit reached
Best objective -3.571899904516e+02, best bound -4.394641945018e+02, gap 23.0337%

User-callback calls 165951, time in user-callback 2741.36 sec
